(set-logic ALL)
(declare-fun var0 () String)
(assert (str.in_re var0 (re.++ (re.union (re.union (re.* (re.union (re.* (re.+ (re.* (re.* (str.to_re "000"))))) (re.* (re.union (re.* (re.+ (str.to_re "11"))) (re.* (re.union (str.to_re "222") (str.to_re "333"))))))) (re.* (re.* (re.union (re.union (re.union (re.* (str.to_re "444")) (re.* (str.to_re "555"))) (re.union (re.union (str.to_re "6") (str.to_re "777")) (re.union (str.to_re "8") (str.to_re "99")))) (re.union (re.union (re.union (str.to_re "a") (str.to_re "bb")) (re.union (str.to_re "ccc") (str.to_re "dd"))) (re.union (re.+ (str.to_re "ee")) (re.+ (str.to_re "f")))))))) (re.union (re.union (re.union (re.+ (re.* (re.* (re.union (str.to_re "ggg") (str.to_re "hh"))))) (re.+ (re.union (re.+ (re.union (str.to_re "iii") (str.to_re "jj"))) (re.+ (re.+ (str.to_re "kk")))))) (re.union (re.+ (re.union (re.union (re.* (str.to_re "l")) (re.* (str.to_re "mm"))) (re.union (re.* (str.to_re "nnn")) (re.* (str.to_re "o"))))) (re.+ (re.+ (re.union (re.+ (str.to_re "pp")) (re.+ (str.to_re "qqq"))))))) (re.union (re.* (re.* (re.+ (re.* (re.* (str.to_re "rrr")))))) (re.* (re.+ (re.union (re.+ (re.+ (str.to_re "ss"))) (re.+ (re.union (str.to_re "ttt") (str.to_re "u"))))))))) (re.union (re.+ (re.* (re.* (re.* (re.union (re.* (re.+ (str.to_re "vvv"))) (re.* (re.+ (str.to_re "www")))))))) (re.+ (re.union (re.* (re.+ (re.union (re.union (re.union (str.to_re "xxx") (str.to_re "y")) (re.union (str.to_re "zz") (str.to_re "A"))) (re.union (re.* (str.to_re "B")) (re.* (str.to_re "CC")))))) (re.* (re.+ (re.union (re.union (re.union (str.to_re "DD") (str.to_re "E")) (re.union (str.to_re "F") (str.to_re "G"))) (re.union (re.union (str.to_re "HHH") (str.to_re "I")) (re.union (str.to_re "J") (str.to_re "KKK"))))))))))))
(assert (<= 15 (str.len var0)))
(check-sat)